NAME          DISTILLATION
ROWS
 G  P1
 G  P2
 G  P3
 N  COST
COLUMNS
    C1        P1            2.0
    C1        P2            3.0
    C1        P3            2.0
    C1        COST          8.0
    C2        P1            2.0
    C2        P2            4.0
    C2        P3            1.0
    C2        COST         10.0
RHS
    RESOURCES P1            7.0
    RESOURCES P2           12.0
    RESOURCES P3            6.0
ENDATA
